122 5
10 10 10 10 10 

0 0 0 0 0 0 5 2 14 26 38 50 
0 0 0 0 0 0 5 3 4 5 7 12 
3 0 0 1 0 0 2 10 6 
2 0 0 3 0 0 2 10 9 
3 0 0 4 0 0 2 9 8 
9 0 0 1 0 0 1 8 
2 0 0 4 0 0 1 11 
6 0 0 2 0 0 1 13 
9 0 0 5 0 0 1 13 
8 0 0 1 0 0 1 13 
8 0 0 1 0 0 1 13 
1 0 0 3 0 0 1 13 
0 0 0 0 0 0 1 62 
0 0 0 0 0 0 3 15 16 18 
5 0 1 0 0 0 5 24 23 22 21 17 
2 0 1 0 0 0 3 21 20 19 
9 0 2 0 0 0 1 19 
10 0 2 0 0 0 1 20 
3 0 2 0 0 0 1 25 
10 0 4 0 0 0 1 25 
8 0 3 0 0 0 1 25 
8 0 3 0 0 0 1 25 
6 0 3 0 0 0 1 25 
3 0 4 0 0 0 1 25 
0 0 0 0 0 0 1 62 
0 0 0 0 0 0 5 27 28 29 31 36 
9 0 0 0 0 1 4 35 33 32 30 
9 0 0 0 0 3 3 34 33 32 
6 0 0 0 0 3 2 33 32 
6 0 0 0 0 2 1 34 
7 0 0 0 0 2 1 32 
10 0 0 0 0 2 1 37 
10 0 0 0 0 3 1 37 
2 0 0 0 0 4 1 37 
1 0 0 0 0 2 1 37 
10 0 0 0 0 3 1 37 
0 0 0 0 0 0 1 62 
0 0 0 0 0 0 4 39 40 41 44 
5 0 0 0 0 1 4 48 47 45 43 
1 0 0 0 0 3 4 48 47 46 45 
4 0 0 0 0 3 1 42 
8 0 0 0 0 2 2 46 45 
5 0 0 0 0 3 1 46 
7 0 0 0 0 2 1 45 
8 0 0 0 0 3 1 49 
7 0 0 0 0 3 1 49 
2 0 0 0 0 2 1 49 
4 0 0 0 0 3 1 49 
0 0 0 0 0 0 1 62 
0 0 0 0 0 0 4 51 52 53 60 
6 0 1 0 0 0 4 59 58 57 55 
5 0 4 0 0 0 3 59 58 54 
3 0 4 0 0 0 3 58 57 55 
5 0 3 0 0 0 2 57 56 
3 0 3 0 0 0 1 56 
10 0 2 0 0 0 1 61 
3 0 2 0 0 0 1 61 
10 0 1 0 0 0 1 61 
1 0 3 0 0 0 1 61 
7 0 2 0 0 0 1 61 
0 0 0 0 0 0 1 62 
0 0 0 0 0 0 2 63 75 
0 0 0 0 0 0 2 64 65 
7 0 0 0 1 0 4 69 68 67 66 
1 0 0 0 3 0 4 69 68 67 66 
3 0 0 0 3 0 4 73 72 71 70 
3 0 0 0 2 0 4 73 72 71 70 
4 0 0 0 2 0 4 73 72 71 70 
7 0 0 0 4 0 3 72 71 70 
2 0 0 0 3 0 1 74 
7 0 0 0 3 0 1 74 
4 0 0 0 3 0 1 74 
1 0 0 0 1 0 1 74 
0 0 0 0 0 0 1 87 
0 0 0 0 0 0 5 76 77 78 79 80 
2 0 0 1 0 0 3 85 82 81 
5 0 0 3 0 0 2 84 81 
8 0 0 4 0 0 2 85 83 
6 0 0 1 0 0 2 84 83 
6 0 0 3 0 0 2 84 83 
4 0 0 5 0 0 1 83 
1 0 0 1 0 0 1 83 
10 0 0 2 0 0 1 86 
3 0 0 1 0 0 1 86 
2 0 0 4 0 0 1 86 
0 0 0 0 0 0 1 87 
0 0 0 0 0 0 2 88 89 
1 0 0 0 1 0 5 97 96 95 92 90 
6 0 0 0 1 0 3 95 91 90 
8 0 0 0 3 0 2 94 93 
9 0 0 0 5 0 1 94 
1 0 0 0 2 0 1 93 
8 0 0 0 1 0 1 98 
7 0 0 0 2 0 1 98 
7 0 0 0 3 0 1 98 
9 0 0 0 1 0 1 98 
10 0 0 0 6 0 1 98 
0 0 0 0 0 0 1 99 
0 0 0 0 0 0 5 100 101 103 108 109 
3 0 0 0 1 0 2 107 106 
6 0 0 0 2 0 1 102 
6 0 0 0 2 0 1 104 
4 0 0 0 5 0 1 105 
7 0 0 0 5 0 1 110 
8 0 0 0 2 0 1 110 
3 0 0 0 1 0 1 110 
5 0 0 0 2 0 1 110 
6 0 0 0 3 0 1 110 
2 0 0 0 2 0 1 110 
0 0 0 0 0 0 1 111 
0 0 0 0 0 0 6 112 113 116 117 120 121 
1 0 0 0 1 0 2 119 115 
7 0 0 0 4 0 1 114 
9 0 0 0 2 0 1 118 
5 0 0 0 3 0 1 118 
3 0 0 0 2 0 1 118 
3 0 0 0 1 0 1 118 
3 0 0 0 6 0 1 122 
6 0 0 0 2 0 1 122 
3 0 0 0 3 0 1 122 
2 0 0 0 1 0 1 122 
0 0 0 0 0 0 0 
